NAME          COPTPROB
OBJSENSE
  MIN
ROWS
 N  __OBJ___
 L  C0      
 L  C3      
 L  C6      
 L  C8      
 L  C9      
 L  C10     
 L  C11     
 L  C14     
 L  C17     
 L  C18     
 L  C22     
 L  C23     
 L  C24     
 L  C27     
 L  C30     
 L  C31     
 L  C32     
 L  C33     
 L  C41     
 L  C42     
 L  C43     
 L  C48     
 L  C50     
 L  C51     
 L  C52     
 L  C53     
 L  C59     
 L  C60     
 L  C65     
 L  C66     
 L  C68     
 L  C70     
 L  C71     
 L  C74     
 L  C75     
 L  C77     
 L  C78     
 L  C80     
 L  C83     
 L  C84     
 L  C85     
 L  C86     
 L  C90     
 L  C92     
 L  C93     
 L  C94     
 L  C96     
 L  C97     
 L  C98     
 L  C100    
 L  C101    
 L  C102    
 L  C103    
 L  C105    
 L  C106    
 L  C109    
 L  C111    
 L  C113    
 L  C116    
 L  C121    
 L  C123    
 L  C126    
 L  C128    
 L  C129    
 L  C133    
 L  C134    
 L  C135    
 L  C136    
 L  C138    
 L  C140    
 L  C141    
 L  C142    
 L  C143    
 L  C146    
 L  C147    
 L  C149    
 L  C150    
 L  C152    
 L  C156    
 L  C160    
 L  C161    
 L  C162    
 L  C165    
 L  C168    
 L  C171    
 L  C173    
 L  C176    
 L  C177    
 L  C178    
 L  C179    
 L  C180    
 L  C181    
 L  C184    
 L  C185    
 L  C187    
 L  C188    
 L  C190    
 L  C191    
 L  C192    
 L  C195    
 L  C197    
 L  C199    
 L  C201    
 L  C203    
 L  C204    
 L  C206    
 L  C207    
 L  C212    
 L  C220    
 L  C221    
 L  C223    
 L  C224    
 L  C226    
 L  C228    
 L  C231    
 L  C232    
 L  C233    
 L  C235    
 L  C237    
 L  C239    
 L  C241    
 L  C243    
 L  C245    
 L  C253    
 L  C255    
 L  C256    
 L  C257    
 L  C259    
 L  C260    
 L  C262    
 L  C263    
 L  C266    
 L  C267    
 L  C269    
 L  C272    
 L  C276    
 L  C278    
 L  C280    
 L  C281    
 L  C282    
 L  C285    
 L  C288    
 L  C289    
 L  C290    
 L  C291    
 L  C292    
 L  C293    
 L  C294    
 L  C295    
 L  C296    
 L  C298    
 L  C300    
 L  C301    
 L  C305    
 L  C307    
 L  C309    
 L  C312    
 L  C313    
 L  C315    
 L  C316    
 L  C318    
 L  C329    
 L  C330    
 L  C331    
 L  C335    
 L  C336    
 L  C337    
 L  C339    
 L  C340    
 L  C342    
 L  C344    
 L  C345    
 L  C346    
 L  C348    
 L  C351    
 L  C354    
 L  C355    
 L  C358    
 L  C360    
 L  C363    
 L  C366    
 L  C367    
 L  C369    
 L  C372    
 L  C373    
 L  C377    
 L  C378    
 L  C379    
 L  C383    
 L  C386    
 L  C387    
 L  C389    
 L  C390    
 L  C392    
 L  C393    
 L  C394    
 L  C396    
 L  C397    
 L  C399    
COLUMNS
    MARKER    'MARKER'                 'INTORG'
    x1        __OBJ___  840
    x1        C90       -1
    x1        C267      -1
    x1        C281      -1
    x1        C378      -1
    x5        __OBJ___  520
    x5        C10       -1
    x5        C48       -1
    x5        C65       -1
    x5        C109      -1
    x6        __OBJ___  696
    x6        C97       -1
    x6        C136      -1
    x6        C335      -1
    x6        C383      -1
    x8        __OBJ___  323
    x8        C8        -1
    x8        C31       -1
    x8        C191      -1
    x9        __OBJ___  760
    x9        C160      -1
    x9        C239      -1
    x10       __OBJ___  149
    x10       C33       -1
    x10       C75       -1
    x10       C80       -1
    x10       C116      -1
    x10       C390      -1
    x11       __OBJ___  713
    x11       C60       -1
    x11       C342      -1
    x11       C358      -1
    x11       C363      -1
    x11       C377      -1
    x12       __OBJ___  946
    x12       C235      -1
    x12       C316      -1
    x19       __OBJ___  567
    x19       C113      -1
    x19       C156      -1
    x19       C161      -1
    x19       C165      -1
    x19       C195      -1
    x19       C243      -1
    x22       __OBJ___  456
    x22       C305      -1
    x22       C330      -1
    x24       __OBJ___  993
    x24       C11       -1
    x24       C177      -1
    x24       C288      -1
    x27       __OBJ___  388
    x27       C86       -1
    x27       C223      -1
    x27       C387      -1
    x29       __OBJ___  899
    x29       C52       -1
    x29       C190      -1
    x29       C260      -1
    x29       C360      -1
    x31       __OBJ___  1000
    x31       C111      -1
    x31       C245      -1
    x31       C285      -1
    x31       C329      -1
    x31       C339      -1
    x31       C386      -1
    x33       __OBJ___  777
    x33       C92       -1
    x33       C351      -1
    x33       C394      -1
    x38       __OBJ___  717
    x38       C83       -1
    x38       C282      -1
    x38       C291      -1
    x39       __OBJ___  284
    x39       C51       -1
    x39       C162      -1
    x39       C197      -1
    x40       __OBJ___  977
    x40       C0        -1
    x40       C59       -1
    x40       C93       -1
    x40       C94       -1
    x40       C312      -1
    x41       __OBJ___  62
    x41       C50       -1
    x41       C221      -1
    x41       C296      -1
    x41       C348      -1
    x42       __OBJ___  444
    x42       C228      -1
    x42       C318      -1
    x42       C331      -1
    x42       C340      -1
    x42       C389      -1
    x46       __OBJ___  285
    x46       C133      -1
    x46       C178      -1
    x46       C241      -1
    x46       C369      -1
    x47       __OBJ___  673
    x47       C9        -1
    x47       C17       -1
    x47       C42       -1
    x47       C176      -1
    x47       C220      -1
    x49       __OBJ___  250
    x49       C142      -1
    x49       C280      -1
    x49       C294      -1
    x50       __OBJ___  552
    x50       C134      -1
    x50       C266      -1
    x52       __OBJ___  488
    x52       C105      -1
    x52       C143      -1
    x52       C298      -1
    x53       __OBJ___  956
    x53       C98       -1
    x53       C100      -1
    x53       C173      -1
    x53       C295      -1
    x53       C372      -1
    x56       __OBJ___  242
    x56       C85       -1
    x56       C140      -1
    x57       __OBJ___  310
    x57       C147      -1
    x57       C185      -1
    x57       C232      -1
    x57       C253      -1
    x58       __OBJ___  385
    x58       C18       -1
    x58       C41       -1
    x58       C146      -1
    x58       C168      -1
    x59       __OBJ___  923
    x59       C171      -1
    x59       C336      -1
    x59       C367      -1
    x59       C379      -1
    x62       __OBJ___  698
    x62       C101      -1
    x62       C102      -1
    x62       C199      -1
    x62       C237      -1
    x62       C262      -1
    x63       __OBJ___  827
    x63       C74       -1
    x63       C84       -1
    x63       C255      -1
    x63       C272      -1
    x63       C346      -1
    x64       __OBJ___  576
    x64       C68       -1
    x64       C150      -1
    x66       __OBJ___  109
    x66       C354      -1
    x72       __OBJ___  979
    x72       C106      -1
    x72       C121      -1
    x72       C307      -1
    x74       __OBJ___  72
    x74       C201      -1
    x74       C224      -1
    x74       C293      -1
    x74       C345      -1
    x76       __OBJ___  79
    x76       C23       -1
    x76       C149      -1
    x76       C231      -1
    x77       __OBJ___  543
    x77       C141      -1
    x77       C233      -1
    x77       C355      -1
    x79       __OBJ___  883
    x79       C14       -1
    x79       C53       -1
    x79       C257      -1
    x83       __OBJ___  339
    x83       C6        -1
    x83       C135      -1
    x83       C393      -1
    x83       C396      -1
    x84       __OBJ___  997
    x84       C24       -1
    x84       C32       -1
    x84       C129      -1
    x84       C344      -1
    x86       __OBJ___  138
    x86       C138      -1
    x86       C152      -1
    x86       C187      -1
    x91       __OBJ___  149
    x91       C180      -1
    x91       C192      -1
    x91       C373      -1
    x91       C399      -1
    x94       __OBJ___  169
    x94       C70       -1
    x94       C78       -1
    x94       C206      -1
    x94       C292      -1
    x94       C309      -1
    x95       __OBJ___  213
    x95       C22       -1
    x95       C66       -1
    x95       C103      -1
    x95       C126      -1
    x95       C315      -1
    x96       __OBJ___  143
    x96       C128      -1
    x96       C184      -1
    x96       C366      -1
    x97       __OBJ___  651
    x97       C27       -1
    x97       C204      -1
    x97       C300      -1
    x97       C337      -1
    x99       __OBJ___  924
    x99       C43       -1
    x99       C93       -1
    x99       C256      -1
    x99       C269      -1
    x100      __OBJ___  19
    x100      C3        -1
    x100      C262      -1
    x100      C301      -1
    x105      __OBJ___  169
    x105      C51       -1
    x107      __OBJ___  314
    x107      C11       -1
    x107      C339      -1
    x110      __OBJ___  576
    x110      C171      -1
    x110      C180      -1
    x110      C195      -1
    x114      __OBJ___  134
    x114      C14       -1
    x114      C60       -1
    x114      C116      -1
    x114      C133      -1
    x114      C156      -1
    x114      C355      -1
    x114      C390      -1
    x116      __OBJ___  612
    x116      C65       -1
    x116      C74       -1
    x116      C197      -1
    x116      C282      -1
    x116      C342      -1
    x117      __OBJ___  739
    x117      C101      -1
    x117      C103      -1
    x117      C342      -1
    x120      __OBJ___  314
    x120      C0        -1
    x120      C31       -1
    x120      C116      -1
    x120      C220      -1
    x121      __OBJ___  45
    x121      C339      -1
    x122      __OBJ___  797
    x122      C100      -1
    x122      C171      -1
    x122      C266      -1
    x122      C346      -1
    x123      __OBJ___  297
    x123      C22       -1
    x123      C33       -1
    x123      C71       -1
    x123      C90       -1
    x126      __OBJ___  805
    x126      C53       -1
    x126      C305      -1
    x127      __OBJ___  293
    x127      C75       -1
    x127      C142      -1
    x127      C176      -1
    x127      C180      -1
    x129      __OBJ___  947
    x129      C135      -1
    x129      C178      -1
    x129      C372      -1
    x131      __OBJ___  87
    x131      C203      -1
    x131      C291      -1
    x138      __OBJ___  60
    x138      C293      -1
    x139      __OBJ___  679
    x139      C8        -1
    x139      C181      -1
    x139      C378      -1
    x140      __OBJ___  56
    x140      C128      -1
    x140      C335      -1
    x140      C358      -1
    x142      __OBJ___  904
    x142      C100      -1
    x142      C262      -1
    x142      C330      -1
    x145      __OBJ___  511
    x145      C3        -1
    x145      C204      -1
    x145      C245      -1
    x145      C293      -1
    x145      C358      -1
    x146      __OBJ___  545
    x146      C24       -1
    x146      C66       -1
    x146      C272      -1
    x148      __OBJ___  378
    x148      C65       -1
    x148      C199      -1
    x149      __OBJ___  464
    x149      C173      -1
    x149      C239      -1
    x149      C272      -1
    x149      C342      -1
    x151      __OBJ___  108
    x151      C178      -1
    x151      C203      -1
    x151      C237      -1
    x153      __OBJ___  262
    x153      C101      -1
    x153      C339      -1
    x153      C366      -1
    x154      __OBJ___  306
    x154      C207      -1
    x154      C315      -1
    x154      C339      -1
    x155      __OBJ___  201
    x155      C199      -1
    x155      C294      -1
    x157      __OBJ___  310
    x157      C150      -1
    x158      __OBJ___  215
    x158      C280      -1
    x158      C383      -1
    x159      __OBJ___  661
    x159      C74       -1
    x159      C232      -1
    x159      C278      -1
    x160      __OBJ___  143
    x160      C8        -1
    x160      C135      -1
    x160      C197      -1
    x160      C207      -1
    x161      __OBJ___  46
    x161      C18       -1
    x161      C23       -1
    x162      __OBJ___  226
    x162      C77       -1
    x162      C165      -1
    x163      __OBJ___  391
    x163      C3        -1
    x163      C206      -1
    x163      C266      -1
    x163      C295      -1
    x167      __OBJ___  867
    x167      C179      -1
    x167      C184      -1
    x167      C223      -1
    x167      C245      -1
    x168      __OBJ___  616
    x168      C10       -1
    x168      C168      -1
    x169      __OBJ___  325
    x169      C342      -1
    x169      C399      -1
    x172      __OBJ___  58
    x172      C27       -1
    x172      C70       -1
    x173      __OBJ___  618
    x173      C233      -1
    x173      C260      -1
    x174      __OBJ___  27
    x174      C181      -1
    x174      C185      -1
    x174      C336      -1
    x175      __OBJ___  27
    x175      C105      -1
    x175      C267      -1
    x176      __OBJ___  789
    x176      C68       -1
    x176      C312      -1
    x176      C378      -1
    x178      __OBJ___  737
    x178      C109      -1
    x178      C339      -1
    x178      C392      -1
    x178      C393      -1
    x179      __OBJ___  990
    x179      C59       -1
    x179      C383      -1
    x179      C386      -1
    x182      __OBJ___  283
    x182      C59       -1
    x182      C366      -1
    x183      __OBJ___  731
    x183      C195      -1
    x183      C360      -1
    x187      __OBJ___  330
    x187      C92       -1
    x187      C204      -1
    x189      __OBJ___  42
    x189      C17       -1
    x189      C30       -1
    x189      C156      -1
    x189      C226      -1
    x190      __OBJ___  916
    x190      C41       -1
    x190      C235      -1
    x190      C340      -1
    x192      __OBJ___  506
    x192      C51       -1
    x192      C80       -1
    x192      C197      -1
    x192      C228      -1
    x192      C313      -1
    x193      __OBJ___  162
    x193      C43       -1
    x197      __OBJ___  130
    x197      C224      -1
    x197      C285      -1
    x203      __OBJ___  320
    x203      C18       -1
    x203      C259      -1
    x204      __OBJ___  179
    x204      C289      -1
    x204      C369      -1
    x206      __OBJ___  860
    x206      C160      -1
    x206      C241      -1
    x206      C345      -1
    x207      __OBJ___  538
    x207      C106      -1
    x207      C178      -1
    x207      C348      -1
    x207      C394      -1
    x212      __OBJ___  358
    x212      C96       -1
    x212      C197      -1
    x212      C339      -1
    x215      __OBJ___  698
    x215      C78       -1
    x215      C102      -1
    x215      C243      -1
    x218      __OBJ___  170
    x218      C74       -1
    x218      C84       -1
    x218      C239      -1
    x219      __OBJ___  110
    x219      C180      -1
    x219      C387      -1
    x220      __OBJ___  428
    x220      C84       -1
    x220      C282      -1
    x222      __OBJ___  105
    x222      C206      -1
    x224      __OBJ___  600
    x224      C27       -1
    x224      C48       -1
    x224      C60       -1
    x224      C180      -1
    x224      C355      -1
    x225      __OBJ___  73
    x225      C179      -1
    x225      C231      -1
    x225      C348      -1
    x227      __OBJ___  276
    x227      C78       -1
    x227      C351      -1
    x228      __OBJ___  373
    x228      C32       -1
    x228      C123      -1
    x228      C307      -1
    x230      __OBJ___  419
    x230      C32       -1
    x230      C143      -1
    x230      C231      -1
    x230      C346      -1
    x232      __OBJ___  610
    x232      C27       -1
    x232      C48       -1
    x232      C140      -1
    x233      __OBJ___  398
    x233      C6        -1
    x233      C96       -1
    x233      C97       -1
    x233      C263      -1
    x233      C379      -1
    x236      __OBJ___  185
    x236      C199      -1
    x241      __OBJ___  450
    x241      C43       -1
    x241      C66       -1
    x241      C177      -1
    x241      C263      -1
    x241      C331      -1
    x244      __OBJ___  476
    x244      C262      -1
    x244      C298      -1
    x246      __OBJ___  15
    x246      C52       -1
    x246      C197      -1
    x246      C373      -1
    x248      __OBJ___  431
    x248      C33       -1
    x248      C228      -1
    x249      __OBJ___  185
    x249      C60       -1
    x249      C90       -1
    x249      C94       -1
    x249      C126      -1
    x249      C337      -1
    x254      __OBJ___  792
    x254      C30       -1
    x254      C239      -1
    x254      C372      -1
    x256      __OBJ___  367
    x256      C27       -1
    x256      C192      -1
    x256      C358      -1
    x256      C392      -1
    x257      __OBJ___  121
    x257      C147      -1
    x257      C181      -1
    x257      C267      -1
    x257      C340      -1
    x258      __OBJ___  37
    x258      C66       -1
    x258      C143      -1
    x262      __OBJ___  274
    x262      C68       -1
    x262      C336      -1
    x262      C344      -1
    x268      __OBJ___  600
    x268      C102      -1
    x268      C185      -1
    x268      C300      -1
    x268      C342      -1
    x270      __OBJ___  791
    x270      C9        -1
    x270      C42       -1
    x270      C212      -1
    x270      C378      -1
    x271      __OBJ___  162
    x271      C173      -1
    x271      C203      -1
    x271      C316      -1
    x272      __OBJ___  93
    x272      C180      -1
    x272      C313      -1
    x272      C379      -1
    x273      __OBJ___  821
    x273      C11       -1
    x273      C23       -1
    x273      C134      -1
    x274      __OBJ___  835
    x274      C24       -1
    x274      C31       -1
    x274      C185      -1
    x274      C221      -1
    x276      __OBJ___  211
    x276      C106      -1
    x276      C141      -1
    x277      __OBJ___  716
    x277      C42       -1
    x277      C48       -1
    x277      C190      -1
    x280      __OBJ___  118
    x280      C30       -1
    x280      C126      -1
    x280      C296      -1
    x281      __OBJ___  889
    x281      C17       -1
    x281      C259      -1
    x281      C378      -1
    x284      __OBJ___  345
    x284      C143      -1
    x284      C162      -1
    x284      C199      -1
    x284      C337      -1
    x287      __OBJ___  340
    x287      C150      -1
    x287      C288      -1
    x287      C342      -1
    x288      __OBJ___  405
    x288      C83       -1
    x288      C93       -1
    x288      C301      -1
    x290      __OBJ___  219
    x290      C346      -1
    x291      __OBJ___  341
    x291      C9        -1
    x291      C11       -1
    x291      C138      -1
    x291      C191      -1
    x293      __OBJ___  63
    x293      C141      -1
    x293      C289      -1
    x297      __OBJ___  462
    x297      C116      -1
    x297      C141      -1
    x297      C307      -1
    x297      C309      -1
    x298      __OBJ___  319
    x298      C60       -1
    x298      C266      -1
    x298      C280      -1
    x298      C290      -1
    x301      __OBJ___  279
    x301      C257      -1
    x301      C377      -1
    x302      __OBJ___  234
    x302      C260      -1
    x304      __OBJ___  316
    x304      C52       -1
    x304      C255      -1
    x305      __OBJ___  497
    x305      C86       -1
    x305      C100      -1
    x305      C363      -1
    x306      __OBJ___  185
    x306      C232      -1
    x306      C266      -1
    x306      C355      -1
    x314      __OBJ___  832
    x314      C113      -1
    x314      C180      -1
    x314      C337      -1
    x315      __OBJ___  303
    x315      C188      -1
    x315      C389      -1
    x317      __OBJ___  277
    x317      C162      -1
    x317      C185      -1
    x317      C212      -1
    x320      __OBJ___  733
    x320      C100      -1
    x320      C136      -1
    x320      C309      -1
    x320      C399      -1
    x325      __OBJ___  71
    x325      C188      -1
    x326      __OBJ___  26
    x326      C256      -1
    x326      C292      -1
    x329      __OBJ___  101
    x329      C377      -1
    x330      __OBJ___  75
    x330      C138      -1
    x330      C203      -1
    x335      __OBJ___  832
    x335      C96       -1
    x335      C126      -1
    x335      C133      -1
    x335      C243      -1
    x336      __OBJ___  60
    x336      C285      -1
    x336      C312      -1
    x336      C331      -1
    x336      C396      -1
    x338      __OBJ___  435
    x338      C50       -1
    x338      C51       -1
    x338      C140      -1
    x338      C168      -1
    x338      C367      -1
    x339      __OBJ___  343
    x339      C162      -1
    x339      C383      -1
    x340      __OBJ___  876
    x340      C146      -1
    x340      C152      -1
    x340      C233      -1
    x340      C253      -1
    x340      C282      -1
    x342      __OBJ___  558
    x342      C8        -1
    x342      C32       -1
    x342      C191      -1
    x343      __OBJ___  905
    x343      C59       -1
    x343      C121      -1
    x343      C292      -1
    x343      C390      -1
    x344      __OBJ___  318
    x344      C243      -1
    x344      C281      -1
    x344      C340      -1
    x351      __OBJ___  296
    x351      C77       -1
    x351      C281      -1
    x351      C392      -1
    x354      __OBJ___  473
    x354      C32       -1
    x354      C83       -1
    x356      __OBJ___  419
    x356      C226      -1
    x356      C318      -1
    x356      C354      -1
    x358      __OBJ___  535
    x358      C32       -1
    x358      C68       -1
    x358      C129      -1
    x358      C224      -1
    x359      __OBJ___  877
    x359      C0        -1
    x359      C102      -1
    x359      C178      -1
    x363      __OBJ___  69
    x363      C77       -1
    x363      C123      -1
    x364      __OBJ___  136
    x364      C98       -1
    x364      C143      -1
    x364      C305      -1
    x365      __OBJ___  477
    x365      C206      -1
    x365      C278      -1
    x366      __OBJ___  22
    x366      C212      -1
    x366      C329      -1
    x368      __OBJ___  700
    x368      C68       -1
    x368      C201      -1
    x368      C276      -1
    x369      __OBJ___  410
    x369      C103      -1
    x369      C162      -1
    x369      C185      -1
    x369      C291      -1
    x372      __OBJ___  183
    x372      C188      -1
    x372      C192      -1
    x372      C397      -1
    x372      C399      -1
    x373      __OBJ___  212
    x373      C161      -1
    x373      C296      -1
    x373      C301      -1
    x376      __OBJ___  121
    x376      C111      -1
    x376      C188      -1
    x378      __OBJ___  730
    x378      C65       -1
    x378      C66       -1
    x378      C102      -1
    x378      C223      -1
    x378      C280      -1
    x379      __OBJ___  287
    x379      C10       -1
    x379      C129      -1
    x379      C300      -1
    x381      __OBJ___  377
    x381      C263      -1
    x384      __OBJ___  162
    x384      C9        -1
    x384      C290      -1
    x384      C354      -1
    x384      C369      -1
    x389      __OBJ___  166
    x389      C98       -1
    x389      C204      -1
    x390      __OBJ___  474
    x390      C51       -1
    x390      C237      -1
    x390      C269      -1
    x393      __OBJ___  475
    x393      C128      -1
    x393      C233      -1
    x393      C241      -1
    x393      C312      -1
    x394      __OBJ___  304
    x394      C80       -1
    x394      C85       -1
    x394      C212      -1
    x396      __OBJ___  386
    x396      C141      -1
    x396      C185      -1
    x396      C187      -1
    x396      C243      -1
    x396      C276      -1
    x397      __OBJ___  754
    x397      C162      -1
    x397      C188      -1
    x397      C201      -1
    x397      C330      -1
    x398      __OBJ___  378
    x398      C80       -1
    x398      C245      -1
    x398      C276      -1
    x398      C351      -1
    x398      C377      -1
    x399      __OBJ___  119
    x399      C190      -1
    x400      __OBJ___  291
    x400      C9        -1
    x400      C71       -1
    x400      C149      -1
    x400      C294      -1
    x400      C397      -1
    MARKER    'MARKER'                 'INTEND'
RHS
    RHS       __OBJ___  -12318
    RHS       C0        -1
    RHS       C3        -1
    RHS       C6        -1
    RHS       C8        -1
    RHS       C9        -1
    RHS       C10       -1
    RHS       C11       -1
    RHS       C14       -1
    RHS       C17       -1
    RHS       C18       -1
    RHS       C22       -1
    RHS       C23       -1
    RHS       C24       -1
    RHS       C27       -1
    RHS       C30       -1
    RHS       C31       -1
    RHS       C32       -1
    RHS       C33       -1
    RHS       C41       -1
    RHS       C42       -1
    RHS       C43       -1
    RHS       C48       -1
    RHS       C50       -1
    RHS       C51       -1
    RHS       C52       -1
    RHS       C53       -1
    RHS       C59       -1
    RHS       C60       -1
    RHS       C65       -1
    RHS       C66       -1
    RHS       C68       -1
    RHS       C70       -1
    RHS       C71       -1
    RHS       C74       -1
    RHS       C75       -1
    RHS       C77       -1
    RHS       C78       -1
    RHS       C80       -1
    RHS       C83       -1
    RHS       C84       -1
    RHS       C85       -1
    RHS       C86       -1
    RHS       C90       -1
    RHS       C92       -1
    RHS       C93       -1
    RHS       C94       -1
    RHS       C96       -1
    RHS       C97       -1
    RHS       C98       -1
    RHS       C100      -1
    RHS       C101      -1
    RHS       C102      -1
    RHS       C103      -1
    RHS       C105      -1
    RHS       C106      -1
    RHS       C109      -1
    RHS       C111      -1
    RHS       C113      -1
    RHS       C116      -1
    RHS       C121      -1
    RHS       C123      -1
    RHS       C126      -1
    RHS       C128      -1
    RHS       C129      -1
    RHS       C133      -1
    RHS       C134      -1
    RHS       C135      -1
    RHS       C136      -1
    RHS       C138      -1
    RHS       C140      -1
    RHS       C141      -1
    RHS       C142      -1
    RHS       C143      -1
    RHS       C146      -1
    RHS       C147      -1
    RHS       C149      -1
    RHS       C150      -1
    RHS       C152      -1
    RHS       C156      -1
    RHS       C160      -1
    RHS       C161      -1
    RHS       C162      -1
    RHS       C165      -1
    RHS       C168      -1
    RHS       C171      -1
    RHS       C173      -1
    RHS       C176      -1
    RHS       C177      -1
    RHS       C178      -1
    RHS       C179      -1
    RHS       C180      -1
    RHS       C181      -1
    RHS       C184      -1
    RHS       C185      -1
    RHS       C187      -1
    RHS       C188      -1
    RHS       C190      -1
    RHS       C191      -1
    RHS       C192      -1
    RHS       C195      -1
    RHS       C197      -1
    RHS       C199      -1
    RHS       C201      -1
    RHS       C203      -1
    RHS       C204      -1
    RHS       C206      -1
    RHS       C207      -1
    RHS       C212      -1
    RHS       C220      -1
    RHS       C221      -1
    RHS       C223      -1
    RHS       C224      -1
    RHS       C226      -1
    RHS       C228      -1
    RHS       C231      -1
    RHS       C232      -1
    RHS       C233      -1
    RHS       C235      -1
    RHS       C237      -1
    RHS       C239      -1
    RHS       C241      -1
    RHS       C243      -1
    RHS       C245      -1
    RHS       C253      -1
    RHS       C255      -1
    RHS       C256      -1
    RHS       C257      -1
    RHS       C259      -1
    RHS       C260      -1
    RHS       C262      -1
    RHS       C263      -1
    RHS       C266      -1
    RHS       C267      -1
    RHS       C269      -1
    RHS       C272      -1
    RHS       C276      -1
    RHS       C278      -1
    RHS       C280      -1
    RHS       C281      -1
    RHS       C282      -1
    RHS       C285      -1
    RHS       C288      -1
    RHS       C289      -1
    RHS       C290      -1
    RHS       C291      -1
    RHS       C292      -1
    RHS       C293      -1
    RHS       C294      -1
    RHS       C295      -1
    RHS       C296      -1
    RHS       C298      -1
    RHS       C300      -1
    RHS       C301      -1
    RHS       C305      -1
    RHS       C307      -1
    RHS       C309      -1
    RHS       C312      -1
    RHS       C313      -1
    RHS       C315      -1
    RHS       C316      -1
    RHS       C318      -1
    RHS       C329      -1
    RHS       C330      -1
    RHS       C331      -1
    RHS       C335      -1
    RHS       C336      -1
    RHS       C337      -1
    RHS       C339      -1
    RHS       C340      -1
    RHS       C342      -1
    RHS       C344      -1
    RHS       C345      -1
    RHS       C346      -1
    RHS       C348      -1
    RHS       C351      -1
    RHS       C354      -1
    RHS       C355      -1
    RHS       C358      -1
    RHS       C360      -1
    RHS       C363      -1
    RHS       C366      -1
    RHS       C367      -1
    RHS       C369      -1
    RHS       C372      -1
    RHS       C373      -1
    RHS       C377      -1
    RHS       C378      -1
    RHS       C379      -1
    RHS       C383      -1
    RHS       C386      -1
    RHS       C387      -1
    RHS       C389      -1
    RHS       C390      -1
    RHS       C392      -1
    RHS       C393      -1
    RHS       C394      -1
    RHS       C396      -1
    RHS       C397      -1
    RHS       C399      -1
BOUNDS
 UP BOUND     x1        1
 UP BOUND     x5        1
 UP BOUND     x6        1
 UP BOUND     x8        1
 UP BOUND     x9        1
 UP BOUND     x10       1
 UP BOUND     x11       1
 UP BOUND     x12       1
 UP BOUND     x19       1
 UP BOUND     x22       1
 UP BOUND     x24       1
 UP BOUND     x27       1
 UP BOUND     x29       1
 UP BOUND     x31       1
 UP BOUND     x33       1
 UP BOUND     x38       1
 UP BOUND     x39       1
 UP BOUND     x40       1
 UP BOUND     x41       1
 UP BOUND     x42       1
 UP BOUND     x46       1
 UP BOUND     x47       1
 UP BOUND     x49       1
 UP BOUND     x50       1
 UP BOUND     x52       1
 UP BOUND     x53       1
 UP BOUND     x56       1
 UP BOUND     x57       1
 UP BOUND     x58       1
 UP BOUND     x59       1
 UP BOUND     x62       1
 UP BOUND     x63       1
 UP BOUND     x64       1
 UP BOUND     x66       1
 UP BOUND     x72       1
 UP BOUND     x74       1
 UP BOUND     x76       1
 UP BOUND     x77       1
 UP BOUND     x79       1
 UP BOUND     x83       1
 UP BOUND     x84       1
 UP BOUND     x86       1
 UP BOUND     x91       1
 UP BOUND     x94       1
 UP BOUND     x95       1
 UP BOUND     x96       1
 UP BOUND     x97       1
 UP BOUND     x99       1
 UP BOUND     x100      1
 UP BOUND     x105      1
 UP BOUND     x107      1
 UP BOUND     x110      1
 UP BOUND     x114      1
 UP BOUND     x116      1
 UP BOUND     x117      1
 UP BOUND     x120      1
 UP BOUND     x121      1
 UP BOUND     x122      1
 UP BOUND     x123      1
 UP BOUND     x126      1
 UP BOUND     x127      1
 UP BOUND     x129      1
 UP BOUND     x131      1
 UP BOUND     x138      1
 UP BOUND     x139      1
 UP BOUND     x140      1
 UP BOUND     x142      1
 UP BOUND     x145      1
 UP BOUND     x146      1
 UP BOUND     x148      1
 UP BOUND     x149      1
 UP BOUND     x151      1
 UP BOUND     x153      1
 UP BOUND     x154      1
 UP BOUND     x155      1
 UP BOUND     x157      1
 UP BOUND     x158      1
 UP BOUND     x159      1
 UP BOUND     x160      1
 UP BOUND     x161      1
 UP BOUND     x162      1
 UP BOUND     x163      1
 UP BOUND     x167      1
 UP BOUND     x168      1
 UP BOUND     x169      1
 UP BOUND     x172      1
 UP BOUND     x173      1
 UP BOUND     x174      1
 UP BOUND     x175      1
 UP BOUND     x176      1
 UP BOUND     x178      1
 UP BOUND     x179      1
 UP BOUND     x182      1
 UP BOUND     x183      1
 UP BOUND     x187      1
 UP BOUND     x189      1
 UP BOUND     x190      1
 UP BOUND     x192      1
 UP BOUND     x193      1
 UP BOUND     x197      1
 UP BOUND     x203      1
 UP BOUND     x204      1
 UP BOUND     x206      1
 UP BOUND     x207      1
 UP BOUND     x212      1
 UP BOUND     x215      1
 UP BOUND     x218      1
 UP BOUND     x219      1
 UP BOUND     x220      1
 UP BOUND     x222      1
 UP BOUND     x224      1
 UP BOUND     x225      1
 UP BOUND     x227      1
 UP BOUND     x228      1
 UP BOUND     x230      1
 UP BOUND     x232      1
 UP BOUND     x233      1
 UP BOUND     x236      1
 UP BOUND     x241      1
 UP BOUND     x244      1
 UP BOUND     x246      1
 UP BOUND     x248      1
 UP BOUND     x249      1
 UP BOUND     x254      1
 UP BOUND     x256      1
 UP BOUND     x257      1
 UP BOUND     x258      1
 UP BOUND     x262      1
 UP BOUND     x268      1
 UP BOUND     x270      1
 UP BOUND     x271      1
 UP BOUND     x272      1
 UP BOUND     x273      1
 UP BOUND     x274      1
 UP BOUND     x276      1
 UP BOUND     x277      1
 UP BOUND     x280      1
 UP BOUND     x281      1
 UP BOUND     x284      1
 UP BOUND     x287      1
 UP BOUND     x288      1
 UP BOUND     x290      1
 UP BOUND     x291      1
 UP BOUND     x293      1
 UP BOUND     x297      1
 UP BOUND     x298      1
 UP BOUND     x301      1
 UP BOUND     x302      1
 UP BOUND     x304      1
 UP BOUND     x305      1
 UP BOUND     x306      1
 UP BOUND     x314      1
 UP BOUND     x315      1
 UP BOUND     x317      1
 UP BOUND     x320      1
 UP BOUND     x325      1
 UP BOUND     x326      1
 UP BOUND     x329      1
 UP BOUND     x330      1
 UP BOUND     x335      1
 UP BOUND     x336      1
 UP BOUND     x338      1
 UP BOUND     x339      1
 UP BOUND     x340      1
 UP BOUND     x342      1
 UP BOUND     x343      1
 UP BOUND     x344      1
 UP BOUND     x351      1
 UP BOUND     x354      1
 UP BOUND     x356      1
 UP BOUND     x358      1
 UP BOUND     x359      1
 UP BOUND     x363      1
 UP BOUND     x364      1
 UP BOUND     x365      1
 UP BOUND     x366      1
 UP BOUND     x368      1
 UP BOUND     x369      1
 UP BOUND     x372      1
 UP BOUND     x373      1
 UP BOUND     x376      1
 UP BOUND     x378      1
 UP BOUND     x379      1
 UP BOUND     x381      1
 UP BOUND     x384      1
 UP BOUND     x389      1
 UP BOUND     x390      1
 UP BOUND     x393      1
 UP BOUND     x394      1
 UP BOUND     x396      1
 UP BOUND     x397      1
 UP BOUND     x398      1
 UP BOUND     x399      1
 UP BOUND     x400      1
ENDATA
